
Gurobi 10.0.1 (win64) logging started Tue May  2 02:40:36 2023

Set parameter LogFile to value "logFiles/N-1L-C/N-1L-14U-29F-23V-300D-charterout.log"
Gurobi Optimizer version 10.0.1 build v10.0.1rc0 (win64)

CPU model: Intel(R) Core(TM) i7-10700 CPU @ 2.90GHz, instruction set [SSE2|AVX|AVX2]
Thread count: 8 physical cores, 16 logical processors, using up to 16 threads

Optimize a model with 353323 rows, 2900600 columns and 33806540 nonzeros
Model fingerprint: 0x0ba1a106
Variable types: 8235 continuous, 2892365 integer (2892365 binary)
Coefficient statistics:
  Matrix range     [1e+00, 2e+05]
  Objective range  [4e+01, 3e+07]
  Bounds range     [1e+00, 1e+00]
  RHS range        [1e+00, 4e+06]
Presolve removed 123927 rows and 52891 columns (presolve time = 5s) ...
Presolve removed 125032 rows and 54432 columns (presolve time = 11s) ...
Presolve removed 125032 rows and 54432 columns (presolve time = 15s) ...
Presolve removed 131322 rows and 174447 columns (presolve time = 20s) ...
Presolve removed 137876 rows and 174447 columns (presolve time = 25s) ...
Presolve removed 240411 rows and 178326 columns (presolve time = 30s) ...
Presolve removed 240462 rows and 178353 columns (presolve time = 35s) ...
Presolve removed 240614 rows and 178499 columns (presolve time = 40s) ...
Presolve removed 240797 rows and 178730 columns (presolve time = 45s) ...
Presolve removed 240967 rows and 178883 columns (presolve time = 50s) ...
Presolve removed 240714 rows and 178630 columns
Presolve time: 50.23s

Explored 0 nodes (0 simplex iterations) in 60.22 seconds (140.25 work units)
Thread count was 1 (of 16 available processors)

Solution count 0

Time limit reached
Best objective -, best bound -, gap -
IIS computation: initial model status unknown, solving to determine model status
Presolve removed 123927 rows and 52891 columns (presolve time = 5s) ...
Presolve removed 125032 rows and 54432 columns (presolve time = 11s) ...
Presolve removed 125032 rows and 54432 columns (presolve time = 15s) ...
Presolve removed 131406 rows and 176505 columns (presolve time = 20s) ...
Presolve removed 137958 rows and 176505 columns (presolve time = 25s) ...
Presolve removed 242528 rows and 180736 columns (presolve time = 30s) ...
Presolve removed 242553 rows and 180763 columns (presolve time = 35s) ...
Presolve removed 242679 rows and 180896 columns (presolve time = 40s) ...
Presolve removed 242823 rows and 181049 columns (presolve time = 45s) ...
Presolve removed 242967 rows and 181202 columns
Presolve time: 49.05s

Explored 0 nodes (0 simplex iterations) in 60.13 seconds (139.10 work units)
Thread count was 1 (of 16 available processors)

Solution count 0

Time limit reached
Best objective -, best bound -, gap -
IIS runtime: 60.25 seconds (139.10 work units)
